(set-info :source |printed by MathSAT|)
(declare-fun |!{$(in_main#0)<array1.1>}| () (Array Int Int))
(declare-fun |!{$(in_main#0)<array1.1>}.next| () (Array Int Int))
(declare-fun |!{$(in_main#0)<array2.2>}| () (Array Int Int))
(declare-fun |!{$(in_main#0)<array2.2>}.next| () (Array Int Int))
(declare-fun |!{$(in_main#0)<array3.3>}| () (Array Int Int))
(declare-fun |!{$(in_main#0)<array3.3>}.next| () (Array Int Int))
(declare-fun |!{$(in_main#0)<L>}| () Int)
(declare-fun |!{$(in_main#0)<L>}.next| () Int)
(declare-fun |!{$(in_main#0)<N>}| () Int)
(declare-fun |!{$(in_main#0)<N>}.next| () Int)
(declare-fun |!{$(in_main#0)<i>}| () Int)
(declare-fun |!{$(in_main#0)<i>}.next| () Int)
(declare-fun |!{$(in_main#0)<j>}| () Int)
(declare-fun |!{$(in_main#0)<j>}.next| () Int)
(declare-fun |!{$(in_main#0)<k>}| () Int)
(declare-fun |!{$(in_main#0)<k>}.next| () Int)
(declare-fun |!{$(in_main#0)<k#1>}| () Int)
(declare-fun |!{$(in_main#0)<k#1>}.next| () Int)
(declare-fun |!{$(in_main#0)<k#2>}| () Int)
(declare-fun |!{$(in_main#0)<k#2>}.next| () Int)
(declare-fun |!{$(in_main#0)<k#3>}| () Int)
(declare-fun |!{$(in_main#0)<k#3>}.next| () Int)
(declare-fun |!{$(in_main#0)<k#4>}| () Int)
(declare-fun |!{$(in_main#0)<k#4>}.next| () Int)
(declare-fun |!{$(in_main#0)<k#5>}| () Int)
(declare-fun |!{$(in_main#0)<k#5>}.next| () Int)
(declare-fun |!{$(in_main#0)<l>}| () Int)
(declare-fun |!{$(in_main#0)<l>}.next| () Int)
(declare-fun |!{$(in_main#0)<$(in___VERIFIER_nondet_int#0)<h#<__VERIFIER_nondet_int.return>>>}| () Int)
(declare-fun |!{$(in_main#0)<$(in___VERIFIER_nondet_int#1)<h#<__VERIFIER_nondet_int.return>>>}| () Int)
(declare-fun |!{$(in_main#0)<$(in___VERIFIER_nondet_int#4)<h#<__VERIFIER_nondet_int.return>>>}| () Int)
(declare-fun |!{$(in_main#0)<$(in___VERIFIER_nondet_int#5)<h#<__VERIFIER_nondet_int.return>>>}| () Int)
(declare-fun |!{$(in_main#0)<$(in___VERIFIER_nondet_int#6)<h#<__VERIFIER_nondet_int.return>>>}| () Int)
(declare-fun !pc () Int)
(declare-fun !pc.next () Int)
(declare-fun |%{$(in_main#0)<i>}#1| () Int)
(declare-fun |%{$(in_main#0)<j>}#1| () Int)
(declare-fun |%{$(in_main#0)<k#1>}#1| () Int)
(declare-fun |%{$(in_main#0)<k#2>}#1| () Int)
(declare-fun |%{$(in_main#0)<k#3>}#1| () Int)
(declare-fun |%{$(in_main#0)<k#4>}#1| () Int)
(declare-fun |%{$(in_main#0)<k#5>}#1| () Int)
(declare-fun |%{$(in_main#0)<l>}#1| () Int)
(declare-fun |%{$(in_main#0)<array1.1>}#1| () (Array Int Int))
(declare-fun |%{$(in_main#0)<array2.2>}#1| () (Array Int Int))
(declare-fun |%{$(in_main#0)<array3.3>}#1| () (Array Int Int))
(declare-fun |%{$(in_main#0)<array3.3>}#2| () (Array Int Int))
(declare-fun |%{$(in_main#0)<$temp.1>}#2| () Int)
(declare-fun |%{$(in_main#0)<k#4>}#2| () Int)
(declare-fun |%{$(in_main#0)<j>}#2| () Int)
(define-fun .def_69 () Int (! !pc :next !pc.next))
(define-fun .def_72 () Bool (! (= .def_69 2) :init true))
(define-fun .def_534 () Bool (= .def_69 78))
(define-fun .def_495 () Bool (= !pc.next 106))
(define-fun .def_537 () Bool (and .def_495 .def_534))
(define-fun .def_526 () Bool (= |!{$(in_main#0)<k#1>}.next| 0))
(define-fun .def_22 () Int (! |!{$(in_main#0)<k>}| :next |!{$(in_main#0)<k>}.next|))
(define-fun .def_159 () Bool (= .def_22 |!{$(in_main#0)<k>}.next|))
(define-fun .def_20 () Int (! |!{$(in_main#0)<j>}| :next |!{$(in_main#0)<j>}.next|))
(define-fun .def_157 () Bool (= .def_20 |!{$(in_main#0)<j>}.next|))
(define-fun .def_18 () Int (! |!{$(in_main#0)<i>}| :next |!{$(in_main#0)<i>}.next|))
(define-fun .def_155 () Bool (= .def_18 |!{$(in_main#0)<i>}.next|))
(define-fun .def_16 () Int (! |!{$(in_main#0)<N>}| :next |!{$(in_main#0)<N>}.next|))
(define-fun .def_153 () Bool (= .def_16 |!{$(in_main#0)<N>}.next|))
(define-fun .def_14 () Int (! |!{$(in_main#0)<L>}| :next |!{$(in_main#0)<L>}.next|))
(define-fun .def_151 () Bool (= .def_14 |!{$(in_main#0)<L>}.next|))
(define-fun .def_12 () (Array Int Int) (! |!{$(in_main#0)<array3.3>}| :next |!{$(in_main#0)<array3.3>}.next|))
(define-fun .def_149 () Bool (= .def_12 |!{$(in_main#0)<array3.3>}.next|))
(define-fun .def_10 () (Array Int Int) (! |!{$(in_main#0)<array2.2>}| :next |!{$(in_main#0)<array2.2>}.next|))
(define-fun .def_147 () Bool (= .def_10 |!{$(in_main#0)<array2.2>}.next|))
(define-fun .def_8 () (Array Int Int) (! |!{$(in_main#0)<array1.1>}| :next |!{$(in_main#0)<array1.1>}.next|))
(define-fun .def_146 () Bool (= .def_8 |!{$(in_main#0)<array1.1>}.next|))
(define-fun .def_148 () Bool (and .def_146 .def_147))
(define-fun .def_150 () Bool (and .def_148 .def_149))
(define-fun .def_152 () Bool (and .def_150 .def_151))
(define-fun .def_154 () Bool (and .def_152 .def_153))
(define-fun .def_156 () Bool (and .def_154 .def_155))
(define-fun .def_158 () Bool (and .def_156 .def_157))
(define-fun .def_160 () Bool (and .def_158 .def_159))
(define-fun .def_527 () Bool (and .def_160 .def_526))
(define-fun .def_26 () Int (! |!{$(in_main#0)<k#2>}| :next |!{$(in_main#0)<k#2>}.next|))
(define-fun .def_163 () Bool (= .def_26 |!{$(in_main#0)<k#2>}.next|))
(define-fun .def_528 () Bool (and .def_163 .def_527))
(define-fun .def_28 () Int (! |!{$(in_main#0)<k#3>}| :next |!{$(in_main#0)<k#3>}.next|))
(define-fun .def_165 () Bool (= .def_28 |!{$(in_main#0)<k#3>}.next|))
(define-fun .def_529 () Bool (and .def_165 .def_528))
(define-fun .def_30 () Int (! |!{$(in_main#0)<k#4>}| :next |!{$(in_main#0)<k#4>}.next|))
(define-fun .def_167 () Bool (= .def_30 |!{$(in_main#0)<k#4>}.next|))
(define-fun .def_530 () Bool (and .def_167 .def_529))
(define-fun .def_32 () Int (! |!{$(in_main#0)<k#5>}| :next |!{$(in_main#0)<k#5>}.next|))
(define-fun .def_169 () Bool (= .def_32 |!{$(in_main#0)<k#5>}.next|))
(define-fun .def_531 () Bool (and .def_169 .def_530))
(define-fun .def_34 () Int (! |!{$(in_main#0)<l>}| :next |!{$(in_main#0)<l>}.next|))
(define-fun .def_189 () Bool (= .def_34 |!{$(in_main#0)<l>}.next|))
(define-fun .def_532 () Bool (and .def_189 .def_531))
(define-fun .def_502 () Bool (<= .def_16 .def_22))
(define-fun .def_533 () Bool (and .def_502 .def_532))
(define-fun .def_538 () Bool (and .def_533 .def_537))
(define-fun .def_137 () Bool (= !pc.next 78))
(define-fun .def_535 () Bool (and .def_137 .def_534))
(define-fun .def_515 () Int (* (- 1) |!{$(in_main#0)<k>}.next|))
(define-fun .def_516 () Int (+ .def_22 .def_515))
(define-fun .def_517 () Bool (= .def_516 (- 1)))
(define-fun .def_505 () (Array Int Int) (store .def_10 .def_22 |!{$(in_main#0)<$(in___VERIFIER_nondet_int#5)<h#<__VERIFIER_nondet_int.return>>>}|))
(define-fun .def_508 () Bool (= |!{$(in_main#0)<array2.2>}.next| .def_505))
(define-fun .def_504 () (Array Int Int) (store .def_8 .def_22 |!{$(in_main#0)<$(in___VERIFIER_nondet_int#4)<h#<__VERIFIER_nondet_int.return>>>}|))
(define-fun .def_507 () Bool (= |!{$(in_main#0)<array1.1>}.next| .def_504))
(define-fun .def_509 () Bool (and .def_507 .def_508))
(define-fun .def_510 () Bool (and .def_149 .def_509))
(define-fun .def_511 () Bool (and .def_151 .def_510))
(define-fun .def_512 () Bool (and .def_153 .def_511))
(define-fun .def_513 () Bool (and .def_155 .def_512))
(define-fun .def_514 () Bool (and .def_157 .def_513))
(define-fun .def_518 () Bool (and .def_514 .def_517))
(define-fun .def_24 () Int (! |!{$(in_main#0)<k#1>}| :next |!{$(in_main#0)<k#1>}.next|))
(define-fun .def_161 () Bool (= .def_24 |!{$(in_main#0)<k#1>}.next|))
(define-fun .def_519 () Bool (and .def_161 .def_518))
(define-fun .def_520 () Bool (and .def_163 .def_519))
(define-fun .def_521 () Bool (and .def_165 .def_520))
(define-fun .def_522 () Bool (and .def_167 .def_521))
(define-fun .def_523 () Bool (and .def_169 .def_522))
(define-fun .def_524 () Bool (and .def_189 .def_523))
(define-fun .def_503 () Bool (not .def_502))
(define-fun .def_525 () Bool (and .def_503 .def_524))
(define-fun .def_536 () Bool (and .def_525 .def_535))
(define-fun .def_539 () Bool (or .def_536 .def_538))
(define-fun .def_494 () Bool (= .def_69 106))
(define-fun .def_460 () Bool (= !pc.next 126))
(define-fun .def_498 () Bool (and .def_460 .def_494))
(define-fun .def_486 () Bool (= |!{$(in_main#0)<k#2>}.next| 0))
(define-fun .def_162 () Bool (and .def_160 .def_161))
(define-fun .def_487 () Bool (and .def_162 .def_486))
(define-fun .def_488 () Bool (and .def_165 .def_487))
(define-fun .def_489 () Bool (and .def_167 .def_488))
(define-fun .def_490 () Bool (and .def_169 .def_489))
(define-fun .def_491 () Bool (and .def_189 .def_490))
(define-fun .def_465 () Bool (<= .def_14 .def_24))
(define-fun .def_492 () Bool (and .def_465 .def_491))
(define-fun .def_499 () Bool (and .def_492 .def_498))
(define-fun .def_496 () Bool (and .def_494 .def_495))
(define-fun .def_476 () Int (* (- 1) |!{$(in_main#0)<k#1>}.next|))
(define-fun .def_477 () Int (+ .def_24 .def_476))
(define-fun .def_478 () Bool (= .def_477 (- 1)))
(define-fun .def_467 () (Array Int Int) (store .def_12 .def_24 |!{$(in_main#0)<$(in___VERIFIER_nondet_int#6)<h#<__VERIFIER_nondet_int.return>>>}|))
(define-fun .def_469 () Bool (= |!{$(in_main#0)<array3.3>}.next| .def_467))
(define-fun .def_470 () Bool (and .def_148 .def_469))
(define-fun .def_471 () Bool (and .def_151 .def_470))
(define-fun .def_472 () Bool (and .def_153 .def_471))
(define-fun .def_473 () Bool (and .def_155 .def_472))
(define-fun .def_474 () Bool (and .def_157 .def_473))
(define-fun .def_475 () Bool (and .def_159 .def_474))
(define-fun .def_479 () Bool (and .def_475 .def_478))
(define-fun .def_480 () Bool (and .def_163 .def_479))
(define-fun .def_481 () Bool (and .def_165 .def_480))
(define-fun .def_482 () Bool (and .def_167 .def_481))
(define-fun .def_483 () Bool (and .def_169 .def_482))
(define-fun .def_484 () Bool (and .def_189 .def_483))
(define-fun .def_466 () Bool (not .def_465))
(define-fun .def_485 () Bool (and .def_466 .def_484))
(define-fun .def_497 () Bool (and .def_485 .def_496))
(define-fun .def_500 () Bool (or .def_497 .def_499))
(define-fun .def_457 () Bool (= .def_69 134))
(define-fun .def_461 () Bool (and .def_457 .def_460))
(define-fun .def_448 () Int (* (- 1) |!{$(in_main#0)<k#2>}.next|))
(define-fun .def_449 () Int (+ .def_26 .def_448))
(define-fun .def_450 () Bool (= .def_449 (- 1)))
(define-fun .def_451 () Bool (and .def_162 .def_450))
(define-fun .def_452 () Bool (and .def_165 .def_451))
(define-fun .def_453 () Bool (and .def_167 .def_452))
(define-fun .def_454 () Bool (and .def_169 .def_453))
(define-fun .def_455 () Bool (and .def_189 .def_454))
(define-fun .def_387 () Bool (<= .def_16 .def_34))
(define-fun .def_456 () Bool (and .def_387 .def_455))
(define-fun .def_462 () Bool (and .def_456 .def_461))
(define-fun .def_432 () Bool (= !pc.next 134))
(define-fun .def_458 () Bool (and .def_432 .def_457))
(define-fun .def_440 () Int (select .def_8 .def_34))
(define-fun .def_439 () Int (select .def_8 .def_26))
(define-fun .def_441 () Bool (<= .def_439 .def_440))
(define-fun .def_442 () Int (ite .def_441 1 0))
(define-fun .def_443 () Bool (= .def_442 0))
(define-fun .def_444 () Bool (not .def_443))
(define-fun .def_171 () Int (* (- 1) |!{$(in_main#0)<l>}.next|))
(define-fun .def_228 () Int (+ .def_34 .def_171))
(define-fun .def_229 () Bool (= .def_228 (- 1)))
(define-fun .def_164 () Bool (and .def_162 .def_163))
(define-fun .def_166 () Bool (and .def_164 .def_165))
(define-fun .def_168 () Bool (and .def_166 .def_167))
(define-fun .def_170 () Bool (and .def_168 .def_169))
(define-fun .def_230 () Bool (and .def_170 .def_229))
(define-fun .def_446 () Bool (and .def_230 .def_444))
(define-fun .def_388 () Bool (not .def_387))
(define-fun .def_447 () Bool (and .def_388 .def_446))
(define-fun .def_459 () Bool (and .def_447 .def_458))
(define-fun .def_463 () Bool (or .def_459 .def_462))
(define-fun .def_430 () Bool (= .def_69 126))
(define-fun .def_409 () Bool (= !pc.next 165))
(define-fun .def_435 () Bool (and .def_409 .def_430))
(define-fun .def_423 () Bool (= |!{$(in_main#0)<k#3>}.next| 0))
(define-fun .def_424 () Bool (and .def_164 .def_423))
(define-fun .def_425 () Bool (and .def_167 .def_424))
(define-fun .def_426 () Bool (and .def_169 .def_425))
(define-fun .def_427 () Bool (and .def_189 .def_426))
(define-fun .def_414 () Int (* (- 1) .def_26))
(define-fun .def_415 () Int (+ .def_16 .def_414))
(define-fun .def_416 () Bool (<= .def_415 1))
(define-fun .def_428 () Bool (and .def_416 .def_427))
(define-fun .def_436 () Bool (and .def_428 .def_435))
(define-fun .def_433 () Bool (and .def_430 .def_432))
(define-fun .def_419 () Int (+ .def_26 .def_171))
(define-fun .def_420 () Bool (= .def_419 (- 1)))
(define-fun .def_421 () Bool (and .def_170 .def_420))
(define-fun .def_417 () Bool (not .def_416))
(define-fun .def_422 () Bool (and .def_417 .def_421))
(define-fun .def_434 () Bool (and .def_422 .def_433))
(define-fun .def_437 () Bool (or .def_434 .def_436))
(define-fun .def_406 () Bool (= .def_69 173))
(define-fun .def_410 () Bool (and .def_406 .def_409))
(define-fun .def_398 () Int (* (- 1) |!{$(in_main#0)<k#3>}.next|))
(define-fun .def_399 () Int (+ .def_28 .def_398))
(define-fun .def_400 () Bool (= .def_399 (- 1)))
(define-fun .def_401 () Bool (and .def_164 .def_400))
(define-fun .def_402 () Bool (and .def_167 .def_401))
(define-fun .def_403 () Bool (and .def_169 .def_402))
(define-fun .def_404 () Bool (and .def_189 .def_403))
(define-fun .def_405 () Bool (and .def_387 .def_404))
(define-fun .def_411 () Bool (and .def_405 .def_410))
(define-fun .def_380 () Bool (= !pc.next 173))
(define-fun .def_407 () Bool (and .def_380 .def_406))
(define-fun .def_390 () Int (select .def_10 .def_34))
(define-fun .def_389 () Int (select .def_10 .def_28))
(define-fun .def_391 () Bool (<= .def_389 .def_390))
(define-fun .def_392 () Int (ite .def_391 1 0))
(define-fun .def_393 () Bool (= .def_392 0))
(define-fun .def_394 () Bool (not .def_393))
(define-fun .def_396 () Bool (and .def_230 .def_394))
(define-fun .def_397 () Bool (and .def_388 .def_396))
(define-fun .def_408 () Bool (and .def_397 .def_407))
(define-fun .def_412 () Bool (or .def_408 .def_411))
(define-fun .def_378 () Bool (= .def_69 165))
(define-fun .def_347 () Bool (= !pc.next 206))
(define-fun .def_383 () Bool (and .def_347 .def_378))
(define-fun .def_372 () Bool (= |!{$(in_main#0)<k#4>}.next| 0))
(define-fun .def_366 () Bool (= |!{$(in_main#0)<j>}.next| 0))
(define-fun .def_364 () Bool (= |!{$(in_main#0)<i>}.next| 0))
(define-fun .def_365 () Bool (and .def_154 .def_364))
(define-fun .def_367 () Bool (and .def_365 .def_366))
(define-fun .def_368 () Bool (and .def_159 .def_367))
(define-fun .def_369 () Bool (and .def_161 .def_368))
(define-fun .def_370 () Bool (and .def_163 .def_369))
(define-fun .def_371 () Bool (and .def_165 .def_370))
(define-fun .def_373 () Bool (and .def_371 .def_372))
(define-fun .def_374 () Bool (and .def_169 .def_373))
(define-fun .def_375 () Bool (and .def_189 .def_374))
(define-fun .def_355 () Int (* (- 1) .def_28))
(define-fun .def_356 () Int (+ .def_16 .def_355))
(define-fun .def_357 () Bool (<= .def_356 1))
(define-fun .def_376 () Bool (and .def_357 .def_375))
(define-fun .def_384 () Bool (and .def_376 .def_383))
(define-fun .def_381 () Bool (and .def_378 .def_380))
(define-fun .def_360 () Int (+ .def_28 .def_171))
(define-fun .def_361 () Bool (= .def_360 (- 1)))
(define-fun .def_362 () Bool (and .def_170 .def_361))
(define-fun .def_358 () Bool (not .def_357))
(define-fun .def_363 () Bool (and .def_358 .def_362))
(define-fun .def_382 () Bool (and .def_363 .def_381))
(define-fun .def_385 () Bool (or .def_382 .def_384))
(define-fun .def_346 () Bool (= .def_69 206))
(define-fun .def_247 () Bool (= !pc.next 262))
(define-fun .def_350 () Bool (and .def_247 .def_346))
(define-fun .def_341 () Bool (= |!{$(in_main#0)<k#5>}.next| 0))
(define-fun .def_342 () Bool (and .def_168 .def_341))
(define-fun .def_343 () Bool (and .def_189 .def_342))
(define-fun .def_254 () Bool (<= .def_14 .def_18))
(define-fun .def_344 () Bool (and .def_254 .def_343))
(define-fun .def_351 () Bool (and .def_344 .def_350))
(define-fun .def_348 () Bool (and .def_346 .def_347))
(define-fun .def_335 () Bool (= |!{$(in_main#0)<k#4>}.next| |%{$(in_main#0)<k#4>}#2|))
(define-fun .def_329 () Bool (= |!{$(in_main#0)<j>}.next| |%{$(in_main#0)<j>}#2|))
(define-fun .def_325 () Int (* (- 1) |!{$(in_main#0)<i>}.next|))
(define-fun .def_326 () Int (+ .def_18 .def_325))
(define-fun .def_327 () Bool (= .def_326 (- 1)))
(define-fun .def_321 () Bool (= |!{$(in_main#0)<array3.3>}.next| |%{$(in_main#0)<array3.3>}#2|))
(define-fun .def_322 () Bool (and .def_148 .def_321))
(define-fun .def_323 () Bool (and .def_151 .def_322))
(define-fun .def_324 () Bool (and .def_153 .def_323))
(define-fun .def_328 () Bool (and .def_324 .def_327))
(define-fun .def_330 () Bool (and .def_328 .def_329))
(define-fun .def_331 () Bool (and .def_159 .def_330))
(define-fun .def_332 () Bool (and .def_161 .def_331))
(define-fun .def_333 () Bool (and .def_163 .def_332))
(define-fun .def_334 () Bool (and .def_165 .def_333))
(define-fun .def_336 () Bool (and .def_334 .def_335))
(define-fun .def_337 () Bool (and .def_169 .def_336))
(define-fun .def_338 () Bool (and .def_189 .def_337))
(define-fun .def_257 () Int (select .def_10 .def_30))
(define-fun .def_258 () (Array Int Int) (store .def_12 .def_18 .def_257))
(define-fun .def_277 () Bool (= .def_258 |%{$(in_main#0)<array3.3>}#2|))
(define-fun .def_256 () Bool (= .def_16 .def_20))
(define-fun .def_314 () Bool (and .def_256 .def_277))
(define-fun .def_283 () Bool (= .def_30 |%{$(in_main#0)<$temp.1>}#2|))
(define-fun .def_315 () Bool (and .def_283 .def_314))
(define-fun .def_297 () Bool (= .def_20 |%{$(in_main#0)<j>}#2|))
(define-fun .def_316 () Bool (and .def_297 .def_315))
(define-fun .def_288 () Int (* (- 1) |%{$(in_main#0)<k#4>}#2|))
(define-fun .def_289 () Int (+ .def_30 .def_288))
(define-fun .def_290 () Bool (= .def_289 (- 1)))
(define-fun .def_317 () Bool (and .def_290 .def_316))
(define-fun .def_262 () Int (select .def_8 .def_20))
(define-fun .def_263 () (Array Int Int) (store .def_12 .def_18 .def_262))
(define-fun .def_276 () Bool (= .def_263 |%{$(in_main#0)<array3.3>}#2|))
(define-fun .def_261 () Bool (= .def_16 .def_30))
(define-fun .def_306 () Bool (and .def_261 .def_276))
(define-fun .def_282 () Bool (= .def_20 |%{$(in_main#0)<$temp.1>}#2|))
(define-fun .def_307 () Bool (and .def_282 .def_306))
(define-fun .def_294 () Int (* (- 1) |%{$(in_main#0)<j>}#2|))
(define-fun .def_295 () Int (+ .def_20 .def_294))
(define-fun .def_296 () Bool (= .def_295 (- 1)))
(define-fun .def_308 () Bool (and .def_296 .def_307))
(define-fun .def_287 () Bool (= .def_30 |%{$(in_main#0)<k#4>}#2|))
(define-fun .def_309 () Bool (and .def_287 .def_308))
(define-fun .def_266 () Bool (<= .def_262 .def_257))
(define-fun .def_267 () Bool (not .def_266))
(define-fun .def_279 () Bool (and .def_267 .def_277))
(define-fun .def_285 () Bool (and .def_279 .def_283))
(define-fun .def_292 () Bool (and .def_285 .def_290))
(define-fun .def_299 () Bool (and .def_292 .def_297))
(define-fun .def_278 () Bool (and .def_266 .def_276))
(define-fun .def_284 () Bool (and .def_278 .def_282))
(define-fun .def_291 () Bool (and .def_284 .def_287))
(define-fun .def_298 () Bool (and .def_291 .def_296))
(define-fun .def_300 () Bool (or .def_298 .def_299))
(define-fun .def_265 () Bool (not .def_261))
(define-fun .def_301 () Bool (and .def_265 .def_300))
(define-fun .def_310 () Bool (or .def_301 .def_309))
(define-fun .def_260 () Bool (not .def_256))
(define-fun .def_311 () Bool (and .def_260 .def_310))
(define-fun .def_318 () Bool (or .def_311 .def_317))
(define-fun .def_339 () Bool (and .def_318 .def_338))
(define-fun .def_255 () Bool (not .def_254))
(define-fun .def_340 () Bool (and .def_255 .def_339))
(define-fun .def_349 () Bool (and .def_340 .def_348))
(define-fun .def_352 () Bool (or .def_349 .def_351))
(define-fun .def_239 () Bool (= .def_69 270))
(define-fun .def_248 () Bool (and .def_239 .def_247))
(define-fun .def_233 () Int (* (- 1) |!{$(in_main#0)<k#5>}.next|))
(define-fun .def_234 () Int (+ .def_32 .def_233))
(define-fun .def_235 () Bool (= .def_234 (- 1)))
(define-fun .def_236 () Bool (and .def_168 .def_235))
(define-fun .def_237 () Bool (and .def_189 .def_236))
(define-fun .def_202 () Bool (<= .def_14 .def_34))
(define-fun .def_238 () Bool (and .def_202 .def_237))
(define-fun .def_249 () Bool (and .def_238 .def_248))
(define-fun .def_194 () Bool (= !pc.next 270))
(define-fun .def_244 () Bool (and .def_194 .def_239))
(define-fun .def_205 () Int (select .def_12 .def_34))
(define-fun .def_204 () Int (select .def_12 .def_32))
(define-fun .def_206 () Bool (<= .def_204 .def_205))
(define-fun .def_207 () Int (ite .def_206 1 0))
(define-fun .def_208 () Bool (= .def_207 0))
(define-fun .def_209 () Bool (not .def_208))
(define-fun .def_231 () Bool (and .def_209 .def_230))
(define-fun .def_203 () Bool (not .def_202))
(define-fun .def_232 () Bool (and .def_203 .def_231))
(define-fun .def_245 () Bool (and .def_232 .def_244))
(define-fun .def_241 () Bool (= !pc.next 290))
(define-fun .def_242 () Bool (and .def_239 .def_241))
(define-fun .def_213 () Bool (and .def_146 .def_208))
(define-fun .def_214 () Bool (and .def_147 .def_213))
(define-fun .def_215 () Bool (and .def_149 .def_214))
(define-fun .def_216 () Bool (and .def_151 .def_215))
(define-fun .def_217 () Bool (and .def_153 .def_216))
(define-fun .def_218 () Bool (and .def_155 .def_217))
(define-fun .def_219 () Bool (and .def_157 .def_218))
(define-fun .def_220 () Bool (and .def_159 .def_219))
(define-fun .def_221 () Bool (and .def_161 .def_220))
(define-fun .def_222 () Bool (and .def_163 .def_221))
(define-fun .def_223 () Bool (and .def_165 .def_222))
(define-fun .def_224 () Bool (and .def_167 .def_223))
(define-fun .def_225 () Bool (and .def_169 .def_224))
(define-fun .def_226 () Bool (and .def_189 .def_225))
(define-fun .def_227 () Bool (and .def_203 .def_226))
(define-fun .def_243 () Bool (and .def_227 .def_242))
(define-fun .def_246 () Bool (or .def_243 .def_245))
(define-fun .def_250 () Bool (or .def_246 .def_249))
(define-fun .def_197 () Bool (= !pc.next 0))
(define-fun .def_192 () Bool (= .def_69 262))
(define-fun .def_198 () Bool (and .def_192 .def_197))
(define-fun .def_141 () Int (* (- 1) .def_32))
(define-fun .def_142 () Int (+ .def_14 .def_141))
(define-fun .def_143 () Bool (<= .def_142 1))
(define-fun .def_176 () Bool (and .def_143 .def_146))
(define-fun .def_177 () Bool (and .def_147 .def_176))
(define-fun .def_178 () Bool (and .def_149 .def_177))
(define-fun .def_179 () Bool (and .def_151 .def_178))
(define-fun .def_180 () Bool (and .def_153 .def_179))
(define-fun .def_181 () Bool (and .def_155 .def_180))
(define-fun .def_182 () Bool (and .def_157 .def_181))
(define-fun .def_183 () Bool (and .def_159 .def_182))
(define-fun .def_184 () Bool (and .def_161 .def_183))
(define-fun .def_185 () Bool (and .def_163 .def_184))
(define-fun .def_186 () Bool (and .def_165 .def_185))
(define-fun .def_187 () Bool (and .def_167 .def_186))
(define-fun .def_188 () Bool (and .def_169 .def_187))
(define-fun .def_190 () Bool (and .def_188 .def_189))
(define-fun .def_199 () Bool (and .def_190 .def_198))
(define-fun .def_195 () Bool (and .def_192 .def_194))
(define-fun .def_172 () Int (+ .def_32 .def_171))
(define-fun .def_173 () Bool (= .def_172 (- 1)))
(define-fun .def_174 () Bool (and .def_170 .def_173))
(define-fun .def_144 () Bool (not .def_143))
(define-fun .def_175 () Bool (and .def_144 .def_174))
(define-fun .def_196 () Bool (and .def_175 .def_195))
(define-fun .def_200 () Bool (or .def_196 .def_199))
(define-fun .def_138 () Bool (and .def_72 .def_137))
(define-fun .def_132 () Bool (= |!{$(in_main#0)<l>}.next| |%{$(in_main#0)<l>}#1|))
(define-fun .def_130 () Bool (= |!{$(in_main#0)<k#5>}.next| |%{$(in_main#0)<k#5>}#1|))
(define-fun .def_128 () Bool (= |!{$(in_main#0)<k#4>}.next| |%{$(in_main#0)<k#4>}#1|))
(define-fun .def_126 () Bool (= |!{$(in_main#0)<k#3>}.next| |%{$(in_main#0)<k#3>}#1|))
(define-fun .def_124 () Bool (= |!{$(in_main#0)<k#2>}.next| |%{$(in_main#0)<k#2>}#1|))
(define-fun .def_122 () Bool (= |!{$(in_main#0)<k#1>}.next| |%{$(in_main#0)<k#1>}#1|))
(define-fun .def_120 () Bool (= |!{$(in_main#0)<k>}.next| 0))
(define-fun .def_118 () Bool (= |!{$(in_main#0)<j>}.next| |%{$(in_main#0)<j>}#1|))
(define-fun .def_116 () Bool (= |!{$(in_main#0)<i>}.next| |%{$(in_main#0)<i>}#1|))
(define-fun .def_114 () Bool (= |!{$(in_main#0)<N>}.next| |!{$(in_main#0)<$(in___VERIFIER_nondet_int#0)<h#<__VERIFIER_nondet_int.return>>>}|))
(define-fun .def_112 () Bool (= |!{$(in_main#0)<L>}.next| |!{$(in_main#0)<$(in___VERIFIER_nondet_int#1)<h#<__VERIFIER_nondet_int.return>>>}|))
(define-fun .def_110 () Bool (= |!{$(in_main#0)<array3.3>}.next| |%{$(in_main#0)<array3.3>}#1|))
(define-fun .def_108 () Bool (= |!{$(in_main#0)<array2.2>}.next| |%{$(in_main#0)<array2.2>}#1|))
(define-fun .def_107 () Bool (= |!{$(in_main#0)<array1.1>}.next| |%{$(in_main#0)<array1.1>}#1|))
(define-fun .def_109 () Bool (and .def_107 .def_108))
(define-fun .def_111 () Bool (and .def_109 .def_110))
(define-fun .def_113 () Bool (and .def_111 .def_112))
(define-fun .def_115 () Bool (and .def_113 .def_114))
(define-fun .def_117 () Bool (and .def_115 .def_116))
(define-fun .def_119 () Bool (and .def_117 .def_118))
(define-fun .def_121 () Bool (and .def_119 .def_120))
(define-fun .def_123 () Bool (and .def_121 .def_122))
(define-fun .def_125 () Bool (and .def_123 .def_124))
(define-fun .def_127 () Bool (and .def_125 .def_126))
(define-fun .def_129 () Bool (and .def_127 .def_128))
(define-fun .def_131 () Bool (and .def_129 .def_130))
(define-fun .def_133 () Bool (and .def_131 .def_132))
(define-fun .def_100 () Int (* (- 1) |!{$(in_main#0)<$(in___VERIFIER_nondet_int#1)<h#<__VERIFIER_nondet_int.return>>>}|))
(define-fun .def_98 () Int (* 2 |!{$(in_main#0)<$(in___VERIFIER_nondet_int#0)<h#<__VERIFIER_nondet_int.return>>>}|))
(define-fun .def_101 () Int (+ .def_98 .def_100))
(define-fun .def_102 () Bool (= .def_101 0))
(define-fun .def_103 () Int (ite .def_102 1 0))
(define-fun .def_104 () Bool (= .def_103 0))
(define-fun .def_105 () Bool (not .def_104))
(define-fun .def_134 () Bool (and .def_105 .def_133))
(define-fun .def_93 () Bool (<= |!{$(in_main#0)<$(in___VERIFIER_nondet_int#0)<h#<__VERIFIER_nondet_int.return>>>}| 0))
(define-fun .def_94 () Bool (not .def_93))
(define-fun .def_95 () Int (ite .def_94 1 0))
(define-fun .def_96 () Bool (= .def_95 0))
(define-fun .def_97 () Bool (not .def_96))
(define-fun .def_135 () Bool (and .def_97 .def_134))
(define-fun .def_139 () Bool (and .def_135 .def_138))
(define-fun .def_201 () Bool (or .def_139 .def_200))
(define-fun .def_251 () Bool (or .def_201 .def_250))
(define-fun .def_353 () Bool (or .def_251 .def_352))
(define-fun .def_386 () Bool (or .def_353 .def_385))
(define-fun .def_413 () Bool (or .def_386 .def_412))
(define-fun .def_438 () Bool (or .def_413 .def_437))
(define-fun .def_464 () Bool (or .def_438 .def_463))
(define-fun .def_501 () Bool (or .def_464 .def_500))
(define-fun .def_540 () Bool (! (or .def_501 .def_539) :trans true))
(define-fun .def_252 () Bool (= .def_69 290))
(define-fun .def_541 () Bool (! (not .def_252) :invar-property 0 :invar-property-name ||))
(assert true)
